; benchmark generated from python API
(set-info :status unknown)
(declare-fun q_v0q0.i () Real)
(declare-fun q_v0q0.r () Real)
(declare-fun q_v0q1.i () Real)
(declare-fun q_v0q1.r () Real)
(declare-fun |anc_v0q0\|q_v0q0.i| () Real)
(declare-fun |anc_v0q0\|q_v0q0.r| () Real)
(declare-fun |anc_v0q0\|q_v0q1.i| () Real)
(declare-fun |anc_v0q0\|q_v0q1.r| () Real)
(declare-fun |anc_v0q1\|q_v0q0.i| () Real)
(declare-fun |anc_v0q1\|q_v0q0.r| () Real)
(declare-fun |anc_v0q1\|q_v0q1.i| () Real)
(declare-fun |anc_v0q1\|q_v0q1.r| () Real)
(declare-fun |anc_v1q0\|q_v0q0.i| () Real)
(declare-fun |anc_v1q0\|q_v0q0.r| () Real)
(declare-fun |anc_v1q0\|q_v0q1.i| () Real)
(declare-fun |anc_v1q0\|q_v0q1.r| () Real)
(declare-fun |anc_v1q1\|q_v0q0.i| () Real)
(declare-fun |anc_v1q1\|q_v0q0.r| () Real)
(declare-fun |anc_v1q1\|q_v0q1.i| () Real)
(declare-fun |anc_v1q1\|q_v0q1.r| () Real)
(declare-fun f (Int) Int)
(declare-fun |anc_v2q0\|q_v1q0.i| () Real)
(declare-fun |anc_v2q0\|q_v1q0.r| () Real)
(declare-fun |anc_v2q0\|q_v1q1.i| () Real)
(declare-fun |anc_v2q0\|q_v1q1.r| () Real)
(declare-fun |anc_v2q1\|q_v1q0.i| () Real)
(declare-fun |anc_v2q1\|q_v1q0.r| () Real)
(declare-fun |anc_v2q1\|q_v1q1.i| () Real)
(declare-fun |anc_v2q1\|q_v1q1.r| () Real)
(declare-fun |anc_v2q0\|q_v2q0.i| () Real)
(declare-fun |anc_v2q0\|q_v2q0.r| () Real)
(declare-fun |anc_v2q0\|q_v2q1.i| () Real)
(declare-fun |anc_v2q0\|q_v2q1.r| () Real)
(declare-fun |anc_v2q1\|q_v2q0.i| () Real)
(declare-fun |anc_v2q1\|q_v2q0.r| () Real)
(declare-fun |anc_v2q1\|q_v2q1.i| () Real)
(declare-fun |anc_v2q1\|q_v2q1.r| () Real)
(declare-fun Pr_q_v2_1 () Real)
(declare-fun Pr_q_v2_0 () Real)
(declare-fun Pr_q_v2_sum () Real)
(declare-fun meas_cert () Bool)
(declare-fun meas_q () Int)
(declare-fun anc_v3q1.i () Real)
(declare-fun anc_v3q1.r () Real)
(declare-fun anc_v3q0.i () Real)
(declare-fun anc_v3q0.r () Real)
(declare-fun q_v0c () Int)
(declare-fun anc_v4q0.i () Real)
(declare-fun anc_v4q0.r () Real)
(declare-fun anc_v4q1.i () Real)
(declare-fun anc_v4q1.r () Real)
(declare-fun deutsch_ret () Int)
(assert
 (and (= q_v0q0.r 0.0) (= 0.0 q_v0q0.i)))
(assert
 (and (= q_v0q1.r 1.0) (= 0.0 q_v0q1.i)))
(assert
 (and (= |anc_v0q0\|q_v0q0.r| 0.0) (= 0.0 |anc_v0q0\|q_v0q0.i|)))
(assert
 (and (= |anc_v0q0\|q_v0q1.r| 0.0) (= 0.0 |anc_v0q0\|q_v0q1.i|)))
(assert
 (and (= |anc_v0q1\|q_v0q0.r| q_v0q0.r) (= |anc_v0q1\|q_v0q0.i| q_v0q0.i)))
(assert
 (and (= |anc_v0q1\|q_v0q1.r| q_v0q1.r) (= |anc_v0q1\|q_v0q1.i| q_v0q1.i)))
(assert
 (let ((?x64 (* (/ 1.0 2.0) |anc_v0q1\|q_v0q1.i|)))
 (let ((?x104 (* (/ 1.0 2.0) |anc_v0q1\|q_v0q0.i|)))
 (let ((?x51 (* (/ 1.0 2.0) |anc_v0q0\|q_v0q1.i|)))
 (let ((?x49 (* (/ 1.0 2.0) |anc_v0q0\|q_v0q0.i|)))
 (let ((?x93 (* (/ 1.0 2.0) |anc_v0q1\|q_v0q1.r|)))
 (let ((?x122 (* (/ 1.0 2.0) |anc_v0q1\|q_v0q0.r|)))
 (let ((?x172 (* (/ 1.0 2.0) |anc_v0q0\|q_v0q1.r|)))
 (let ((?x281 (* (/ 1.0 2.0) |anc_v0q0\|q_v0q0.r|)))
 (and (= |anc_v1q0\|q_v0q0.r| (+ ?x281 ?x172 ?x122 ?x93)) (= |anc_v1q0\|q_v0q0.i| (+ ?x49 ?x51 ?x104 ?x64))))))))))))
(assert
 (let ((?x189 (* (- (/ 1.0 2.0)) |anc_v0q1\|q_v0q1.i|)))
 (let ((?x104 (* (/ 1.0 2.0) |anc_v0q1\|q_v0q0.i|)))
 (let ((?x58 (* (- (/ 1.0 2.0)) |anc_v0q0\|q_v0q1.i|)))
 (let ((?x49 (* (/ 1.0 2.0) |anc_v0q0\|q_v0q0.i|)))
 (let ((?x106 (* (- (/ 1.0 2.0)) |anc_v0q1\|q_v0q1.r|)))
 (let ((?x122 (* (/ 1.0 2.0) |anc_v0q1\|q_v0q0.r|)))
 (let ((?x233 (* (- (/ 1.0 2.0)) |anc_v0q0\|q_v0q1.r|)))
 (let ((?x281 (* (/ 1.0 2.0) |anc_v0q0\|q_v0q0.r|)))
 (and (= |anc_v1q0\|q_v0q1.r| (+ ?x281 ?x233 ?x122 ?x106)) (= |anc_v1q0\|q_v0q1.i| (+ ?x49 ?x58 ?x104 ?x189))))))))))))
(assert
 (let ((?x189 (* (- (/ 1.0 2.0)) |anc_v0q1\|q_v0q1.i|)))
 (let ((?x166 (* (- (/ 1.0 2.0)) |anc_v0q1\|q_v0q0.i|)))
 (let ((?x51 (* (/ 1.0 2.0) |anc_v0q0\|q_v0q1.i|)))
 (let ((?x49 (* (/ 1.0 2.0) |anc_v0q0\|q_v0q0.i|)))
 (let ((?x106 (* (- (/ 1.0 2.0)) |anc_v0q1\|q_v0q1.r|)))
 (let ((?x260 (* (- (/ 1.0 2.0)) |anc_v0q1\|q_v0q0.r|)))
 (let ((?x172 (* (/ 1.0 2.0) |anc_v0q0\|q_v0q1.r|)))
 (let ((?x281 (* (/ 1.0 2.0) |anc_v0q0\|q_v0q0.r|)))
 (and (= |anc_v1q1\|q_v0q0.r| (+ ?x281 ?x172 ?x260 ?x106)) (= |anc_v1q1\|q_v0q0.i| (+ ?x49 ?x51 ?x166 ?x189))))))))))))
(assert
 (let ((?x64 (* (/ 1.0 2.0) |anc_v0q1\|q_v0q1.i|)))
 (let ((?x166 (* (- (/ 1.0 2.0)) |anc_v0q1\|q_v0q0.i|)))
 (let ((?x58 (* (- (/ 1.0 2.0)) |anc_v0q0\|q_v0q1.i|)))
 (let ((?x49 (* (/ 1.0 2.0) |anc_v0q0\|q_v0q0.i|)))
 (let ((?x93 (* (/ 1.0 2.0) |anc_v0q1\|q_v0q1.r|)))
 (let ((?x260 (* (- (/ 1.0 2.0)) |anc_v0q1\|q_v0q0.r|)))
 (let ((?x233 (* (- (/ 1.0 2.0)) |anc_v0q0\|q_v0q1.r|)))
 (let ((?x281 (* (/ 1.0 2.0) |anc_v0q0\|q_v0q0.r|)))
 (and (= |anc_v1q1\|q_v0q1.r| (+ ?x281 ?x233 ?x260 ?x93)) (= |anc_v1q1\|q_v0q1.i| (+ ?x49 ?x58 ?x166 ?x64))))))))))))
(assert
 (let ((?x21 (f 0)))
 (let (($x23 (= ?x21 1)))
 (let ((?x50 (ite $x23 1.0 0.0)))
 (let ((?x243 (* (- 1.0) ?x50)))
 (let ((?x192 (+ 1.0 ?x243)))
 (let (($x127 (= |anc_v2q0\|q_v1q0.i| (+ (* |anc_v1q0\|q_v0q0.i| ?x192) (* |anc_v1q0\|q_v0q1.i| ?x50)))))
 (let (($x207 (= |anc_v2q0\|q_v1q0.r| (+ (* |anc_v1q0\|q_v0q0.r| ?x192) (* |anc_v1q0\|q_v0q1.r| ?x50)))))
 (and $x207 $x127)))))))))
(assert
 (let ((?x25 (f 1)))
 (let (($x27 (= ?x25 1)))
 (let ((?x60 (ite $x27 1.0 0.0)))
 (let ((?x290 (* (- 1.0) ?x60)))
 (let ((?x113 (+ 1.0 ?x290)))
 (let (($x430 (= |anc_v2q0\|q_v1q1.i| (+ (* |anc_v1q0\|q_v0q0.i| ?x60) (* |anc_v1q0\|q_v0q1.i| ?x113)))))
 (let (($x314 (= |anc_v2q0\|q_v1q1.r| (+ (* |anc_v1q0\|q_v0q0.r| ?x60) (* |anc_v1q0\|q_v0q1.r| ?x113)))))
 (and $x314 $x430)))))))))
(assert
 (let ((?x21 (f 0)))
 (let (($x23 (= ?x21 1)))
 (let ((?x50 (ite $x23 1.0 0.0)))
 (let ((?x243 (* (- 1.0) ?x50)))
 (let ((?x192 (+ 1.0 ?x243)))
 (let (($x279 (= |anc_v2q1\|q_v1q0.i| (+ (* |anc_v1q1\|q_v0q0.i| ?x192) (* |anc_v1q1\|q_v0q1.i| ?x50)))))
 (let (($x71 (= |anc_v2q1\|q_v1q0.r| (+ (* |anc_v1q1\|q_v0q0.r| ?x192) (* |anc_v1q1\|q_v0q1.r| ?x50)))))
 (and $x71 $x279)))))))))
(assert
 (let ((?x25 (f 1)))
 (let (($x27 (= ?x25 1)))
 (let ((?x60 (ite $x27 1.0 0.0)))
 (let ((?x290 (* (- 1.0) ?x60)))
 (let ((?x113 (+ 1.0 ?x290)))
 (let (($x381 (= |anc_v2q1\|q_v1q1.i| (+ (* |anc_v1q1\|q_v0q0.i| ?x60) (* |anc_v1q1\|q_v0q1.i| ?x113)))))
 (let (($x334 (= |anc_v2q1\|q_v1q1.r| (+ (* |anc_v1q1\|q_v0q0.r| ?x60) (* |anc_v1q1\|q_v0q1.r| ?x113)))))
 (and $x334 $x381)))))))))
(assert
 (let ((?x220 (+ (* (root-obj (+ (* 2 (^ x 2)) (- 1)) 2) |anc_v2q0\|q_v1q0.i|) (* (root-obj (+ (* 2 (^ x 2)) (- 1)) 2) |anc_v2q1\|q_v1q0.i|))))
 (let ((?x340 (+ (* (root-obj (+ (* 2 (^ x 2)) (- 1)) 2) |anc_v2q0\|q_v1q0.r|) (* (root-obj (+ (* 2 (^ x 2)) (- 1)) 2) |anc_v2q1\|q_v1q0.r|))))
 (and (= |anc_v2q0\|q_v2q0.r| ?x340) (= |anc_v2q0\|q_v2q0.i| ?x220)))))
(assert
 (let ((?x359 (+ (* (root-obj (+ (* 2 (^ x 2)) (- 1)) 2) |anc_v2q0\|q_v1q1.i|) (* (root-obj (+ (* 2 (^ x 2)) (- 1)) 2) |anc_v2q1\|q_v1q1.i|))))
 (let ((?x151 (+ (* (root-obj (+ (* 2 (^ x 2)) (- 1)) 2) |anc_v2q0\|q_v1q1.r|) (* (root-obj (+ (* 2 (^ x 2)) (- 1)) 2) |anc_v2q1\|q_v1q1.r|))))
 (and (= |anc_v2q0\|q_v2q1.r| ?x151) (= |anc_v2q0\|q_v2q1.i| ?x359)))))
(assert
 (let ((?x145 (+ (* (root-obj (+ (* 2 (^ x 2)) (- 1)) 2) |anc_v2q0\|q_v1q0.i|) (* (root-obj (+ (* 2 (^ x 2)) (- 1)) 1) |anc_v2q1\|q_v1q0.i|))))
 (let ((?x386 (+ (* (root-obj (+ (* 2 (^ x 2)) (- 1)) 2) |anc_v2q0\|q_v1q0.r|) (* (root-obj (+ (* 2 (^ x 2)) (- 1)) 1) |anc_v2q1\|q_v1q0.r|))))
 (and (= |anc_v2q1\|q_v2q0.r| ?x386) (= |anc_v2q1\|q_v2q0.i| ?x145)))))
(assert
 (let ((?x142 (+ (* (root-obj (+ (* 2 (^ x 2)) (- 1)) 2) |anc_v2q0\|q_v1q1.i|) (* (root-obj (+ (* 2 (^ x 2)) (- 1)) 1) |anc_v2q1\|q_v1q1.i|))))
 (let ((?x382 (+ (* (root-obj (+ (* 2 (^ x 2)) (- 1)) 2) |anc_v2q0\|q_v1q1.r|) (* (root-obj (+ (* 2 (^ x 2)) (- 1)) 1) |anc_v2q1\|q_v1q1.r|))))
 (and (= |anc_v2q1\|q_v2q1.r| ?x382) (= |anc_v2q1\|q_v2q1.i| ?x142)))))
(assert
 (and (and (<= Pr_q_v2_0 1.0) (>= Pr_q_v2_0 0.0)) (and (<= Pr_q_v2_1 1.0) (>= Pr_q_v2_1 0.0))))
(assert
 (= Pr_q_v2_sum (+ Pr_q_v2_0 Pr_q_v2_1)))
(assert
 (= Pr_q_v2_sum 1.0))
(assert
 (let ((?x56 (+ (+ (^ |anc_v2q0\|q_v2q0.r| 2.0) (^ |anc_v2q0\|q_v2q0.i| 2.0)) (+ (^ |anc_v2q1\|q_v2q0.r| 2.0) (^ |anc_v2q1\|q_v2q0.i| 2.0)))))
 (= Pr_q_v2_0 ?x56)))
(assert
 (let ((?x258 (+ (+ (^ |anc_v2q0\|q_v2q1.r| 2.0) (^ |anc_v2q0\|q_v2q1.i| 2.0)) (+ (^ |anc_v2q1\|q_v2q1.r| 2.0) (^ |anc_v2q1\|q_v2q1.i| 2.0)))))
 (= Pr_q_v2_1 ?x258)))
(assert
 (let (($x46 (= Pr_q_v2_1 1.0)))
 (let (($x286 (= Pr_q_v2_0 1.0)))
 (let (($x257 (or $x286 $x46)))
 (let (($x87 (= meas_cert true)))
 (and (=> $x257 $x87) (=> $x87 $x257)))))))
(assert
 (and (=> (= Pr_q_v2_0 1.0) (= meas_q 0)) (=> (= meas_q 0) (= Pr_q_v2_0 1.0))))
(assert
 (and (=> (= Pr_q_v2_1 1.0) (= meas_q 1)) (=> (= meas_q 1) (= Pr_q_v2_1 1.0))))
(assert
 (let (($x174 (and (= anc_v3q1.r |anc_v2q1\|q_v2q0.r|) (= anc_v3q1.i |anc_v2q1\|q_v2q0.i|))))
 (let (($x44 (and (= anc_v3q0.r |anc_v2q0\|q_v2q0.r|) (= anc_v3q0.i |anc_v2q0\|q_v2q0.i|))))
 (let (($x133 (= meas_q 0)))
 (=> $x133 (and $x44 $x174))))))
(assert
 (let (($x168 (and (= anc_v3q1.r |anc_v2q1\|q_v2q1.r|) (= anc_v3q1.i |anc_v2q1\|q_v2q1.i|))))
 (let (($x337 (and (= anc_v3q0.r |anc_v2q0\|q_v2q1.r|) (= anc_v3q0.i |anc_v2q0\|q_v2q1.i|))))
 (let (($x48 (= meas_q 1)))
 (=> $x48 (and $x337 $x168))))))
(assert
 (= q_v0c meas_q))
(assert
 (let (($x230 (= anc_v4q0.i (+ (* (root-obj (+ (* 2 (^ x 2)) (- 1)) 2) anc_v3q0.i) (* (root-obj (+ (* 2 (^ x 2)) (- 1)) 2) anc_v3q1.i)))))
 (let (($x239 (= anc_v4q0.r (+ (* (root-obj (+ (* 2 (^ x 2)) (- 1)) 2) anc_v3q0.r) (* (root-obj (+ (* 2 (^ x 2)) (- 1)) 2) anc_v3q1.r)))))
 (and $x239 $x230))))
(assert
 (let (($x422 (= anc_v4q1.i (+ (* (root-obj (+ (* 2 (^ x 2)) (- 1)) 2) anc_v3q0.i) (* (root-obj (+ (* 2 (^ x 2)) (- 1)) 1) anc_v3q1.i)))))
 (let (($x274 (= anc_v4q1.r (+ (* (root-obj (+ (* 2 (^ x 2)) (- 1)) 2) anc_v3q0.r) (* (root-obj (+ (* 2 (^ x 2)) (- 1)) 1) anc_v3q1.r)))))
 (and $x274 $x422))))
(assert
 (= deutsch_ret q_v0c))
(check-sat)
